
Gurobi 9.5.1 (win64) logging started Sat Nov 11 18:34:23 2023

Set parameter LogFile to value "consol_sol_7_time_3600_ver2.1.txt"
Set parameter TimeLimit to value 3600
Gurobi Optimizer version 9.5.1 build v9.5.1rc2 (win64)
Thread count: 4 physical cores, 8 logical processors, using up to 8 threads
Optimize a model with 135033 rows, 42970 columns and 1745834 nonzeros
Model fingerprint: 0xe13bdf1d
Variable types: 0 continuous, 42970 integer (42970 binary)
Coefficient statistics:
  Matrix range     [1e+00, 4e+01]
  Objective range  [1e+00, 3e+00]
  Bounds range     [1e+00, 1e+00]
  RHS range        [1e+00, 3e+01]
Found heuristic solution: objective -0.0000000
Presolve removed 18580 rows and 0 columns (presolve time = 9s) ...
Presolve removed 20160 rows and 1784 columns (presolve time = 10s) ...
Presolve removed 19570 rows and 1194 columns
Presolve time: 11.54s
Presolved: 115463 rows, 41776 columns, 765628 nonzeros
Variable types: 0 continuous, 41776 integer (41726 binary)

Deterministic concurrent LP optimizer: primal and dual simplex (primal and dual model)
Showing first log only...

Root relaxation presolved: 115463 rows, 41776 columns, 765628 nonzeros


Root simplex log...

Iteration    Objective       Primal Inf.    Dual Inf.      Time
       0   -0.0000000e+00   0.000000e+00   2.220000e+03     13s
    9920    2.2068527e+00   0.000000e+00   5.875952e+05     15s
   14541    5.6596486e+01   0.000000e+00   1.452350e+05     20s
   17253    1.0987233e+02   0.000000e+00   2.477509e+05     25s
   19230    1.2245425e+02   0.000000e+00   1.253535e+06     30s
   20795    1.6090395e+02   0.000000e+00   3.736473e+05     35s
   22040    1.6567775e+02   0.000000e+00   1.596132e+05     40s
   23315    1.7056755e+02   0.000000e+00   1.839144e+07     45s
   24379    1.7207140e+02   0.000000e+00   3.880431e+05     50s
   25576    1.8355107e+02   0.000000e+00   1.178170e+06     55s
   26800    2.0456956e+02   0.000000e+00   6.727884e+04     60s
   28191    2.1407485e+02   0.000000e+00   5.665804e+05     65s
   29322    2.1739668e+02   0.000000e+00   6.517263e+05     70s
   30519    2.1778060e+02   0.000000e+00   5.098908e+05     75s
   31583    2.1870493e+02   0.000000e+00   9.074823e+05     80s
   32647    2.1901916e+02   0.000000e+00   6.237006e+03     85s
   33924    2.1960864e+02   0.000000e+00   1.118243e+05     90s
   35166    2.2001985e+02   0.000000e+00   1.631231e+05     96s
   36249    2.2024810e+02   0.000000e+00   4.929558e+05    100s
   37446    2.2039474e+02   0.000000e+00   1.206929e+05    105s
   38377    2.2059526e+02   0.000000e+00   2.429758e+05    111s
   39175    2.2073033e+02   0.000000e+00   1.714498e+06    115s
   40363    2.2084886e+02   0.000000e+00   1.607812e+04    120s
   41435    2.2096128e+02   0.000000e+00   3.736944e+05    125s
   42233    2.2100556e+02   0.000000e+00   3.296213e+04    130s
   43164    2.2114463e+02   0.000000e+00   4.782557e+04    135s
   44267    2.2120582e+02   0.000000e+00   4.546753e+04    140s
   45198    2.2128083e+02   0.000000e+00   9.999510e+05    145s
   46129    2.2130384e+02   0.000000e+00   7.718394e+03    150s
   46927    2.2132348e+02   0.000000e+00   6.332814e+03    155s
   47858    2.2134804e+02   0.000000e+00   1.070059e+04    161s
   48656    2.2136310e+02   0.000000e+00   3.898528e+03    165s
   49587    2.2139171e+02   0.000000e+00   6.397699e+03    170s
Concurrent spin time: 10.83s

Solved with dual simplex (primal model)

Root relaxation: objective 2.213483e+02, 54588 iterations, 172.67 seconds (100.76 work units)
Total elapsed time = 204.59s
Total elapsed time = 205.84s

    Nodes    |    Current Node    |     Objective Bounds      |     Work
 Expl Unexpl |  Obj  Depth IntInf | Incumbent    BestBd   Gap | It/Node Time

     0     0  221.34832    0 5050   -0.00000  221.34832      -     -  208s
H    0     0                      30.0000000  221.34832   638%     -  211s
H    0     0                      42.0000000  221.34832   427%     -  212s
     0     0  182.49388    0 4339   42.00000  182.49388   335%     -  319s
     0     0  182.16183    0 4363   42.00000  182.16183   334%     -  333s
     0     0  182.16183    0 4373   42.00000  182.16183   334%     -  335s
     0     0  171.91163    0 3254   42.00000  171.91163   309%     -  482s
     0     0  171.75002    0 3172   42.00000  171.75002   309%     -  519s
     0     0  171.75002    0 3227   42.00000  171.75002   309%     -  528s
     0     0  171.50002    0 3177   42.00000  171.50002   308%     -  637s
     0     0  171.50002    0 3320   42.00000  171.50002   308%     -  662s
     0     0  171.50002    0 3631   42.00000  171.50002   308%     -  732s
H    0     0                      54.5000000  171.50002   215%     -  745s
     0     0  171.50002    0 3533   54.50000  171.50002   215%     -  759s
     0     0  171.50002    0 2249   54.50000  171.50002   215%     - 1227s
     0     0  171.50002    0 2419   54.50000  171.50002   215%     - 1252s
     0     0  171.50002    0 2288   54.50000  171.50002   215%     - 1682s
H    0     0                      74.0000000  171.50002   132%     - 1692s
     0     0  171.50002    0 2771   74.00000  171.50002   132%     - 1728s
     0     0  171.50002    0 2550   74.00000  171.50002   132%     - 2254s
     0     0  171.50002    0 2176   74.00000  171.50002   132%     - 2473s
     0     2  171.50002    0 2171   74.00000  171.50002   132%     - 2979s
     1     4  171.50002    1 2785   74.00000  171.50002   132% 64949 3139s
     3     8  171.50002    2 3046   74.00000  171.50002   132% 35111 3288s
     7    12  171.50002    3 3124   74.00000  171.50002   132% 23837 3427s
    11    14  171.50002    3 3094   74.00000  171.50002   132% 21420 3600s

Cutting planes:
  Gomory: 19
  Cover: 148
  Implied bound: 151
  Clique: 2352
  MIR: 291
  StrongCG: 39
  GUB cover: 130
  Zero half: 303
  RLT: 558
  Relax-and-lift: 1
  BQP: 5
  PSD: 32

Explored 13 nodes (951004 simplex iterations) in 3600.10 seconds (4652.52 work units)
Thread count was 8 (of 8 available processors)

Solution count 5: 74 54.5 42 ... -0

Time limit reached
Best objective 7.400000000000e+01, best bound 1.715000000000e+02, gap 131.7568%
